JulietBench/Juliet_Based_Patch_Bench/linux/CWE-190-Integer-Overflow-or-Wraparound/CVE_2016_8636_647bf3d8a8e5777319da92af672289b2a6c4dc66/Resultmem_check_range_patch2NEQ.smt2
; benchmark generated from python API
(set-info :status unknown)
(declare-fun R () (_ BitVec 32))
(declare-fun rdi () (_ BitVec 64))
(declare-fun rcx () (_ BitVec 64))
(declare-fun r8 () (_ BitVec 64))
(declare-fun rsi () (_ BitVec 64))
(declare-fun rdx () (_ BitVec 64))
(assert
 (let (($x2582 (= (_ bv0 32) R)))
 (let ((?x6 ((_ extract 31 0) rdi)))
 (let (($x11 (= (_ bv1 32) ?x6)))
 (let (($x2587 (and $x11 $x2582)))
 (let (($x2580 (= (_ bv4294967212 32) R)))
 (let (($x46 (= (_ bv0 32) ?x6)))
 (let (($x2586 (and $x46 $x2580)))
 (let (($x37 (and (distinct (_ bv1 32) ?x6) true)))
 (let (($x118 (and (distinct (_ bv0 32) ?x6) true)))
 (let ((?x42 (bvsub ?x6 (_ bv2 32))))
 (let (($x184 (bvugt ?x42 (_ bv1 32))))
 (let (($x2585 (and $x184 $x118 $x37 $x2580)))
 (let (($x47 (bvule ?x42 (_ bv1 32))))
 (let (($x1872 (bvuge rcx rcx)))
 (let ((?x216 (bvadd r8 rcx)))
 (let ((?x210 ((_ extract 63 1) r8)))
 (let ((?x211 (concat (_ bv0 1) ?x210)))
 (let ((?x1874 (bvadd rcx ?x211)))
 (let (($x1869 (bvule ?x1874 ?x216)))
 (let (($x2590 (and $x1869 $x1872 $x47 $x118 $x37 $x2582)))
 (let (($x2570 (bvugt ?x1874 ?x216)))
 (let (($x2589 (and $x2570 $x1872 $x47 $x118 $x37 $x2580)))
 (let (($x2591 (or $x2589 $x2590 $x2585 $x2586 $x2587)))
 (let (($x2594 (not $x2591)))
 (let (($x185 (bvult rsi rcx)))
 (let (($x2584 (and $x185 $x47 $x118 $x37 $x2580)))
 (let (($x206 (bvuge rsi rcx)))
 (let ((?x214 (bvadd rsi rdx)))
 (let (($x217 (bvule ?x214 ?x216)))
 (let (($x2583 (and $x217 $x206 $x47 $x118 $x37 $x2582)))
 (let (($x1864 (bvugt ?x214 ?x216)))
 (let (($x2581 (and $x1864 $x206 $x47 $x118 $x37 $x2580)))
 (let (($x2588 (or $x2581 $x2583 $x2584 $x2585 $x2586 $x2587)))
 (let (($x2593 (not $x2588)))
 (let (($x2595 (and $x2593 $x2594)))
 (let (($x2592 (and $x2588 $x2591)))
 (let (($x2596 (or $x2592 $x2595)))
 (not $x2596)))))))))))))))))))))))))))))))))))))))
(check-sat)
